20 90
0 1 11.5
0 2 22.6
0 3 42.7
0 4 74.7
0 5 4.6
0 6 28.3
0 7 38.9
0 8 18.0
0 9 53.8
0 10 74.3
0 11 30.4
0 12 60.7
0 13 49.2
0 14 76.8
0 15 61.4
0 16 81.3
0 17 66.6
0 18 14.4
0 19 4.8
1 2 28.9
1 3 31.5
1 4 63.7
1 5 8.8
1 6 28.9
1 7 30.4
1 8 26.1
1 9 60.2
1 10 62.9
1 11 22.4
1 12 65.9
1 13 38.8
1 14 66.4
1 15 67.0
1 16 77.5
1 17 67.3
1 18 26.0
1 19 7.8
2 3 58.2
2 4 79.7
2 5 21.3
2 6 14.3
2 7 39.2
2 8 6.2
2 9 31.5
2 10 81.7
2 11 32.3
2 12 38.1
2 13 66.8
2 14 78.9
2 15 38.9
2 16 67.0
2 17 46.5
2 18 21.0
2 19 22.3
3 4 42.4
3 5 40.3
3 6 52.4
3 7 33.9
3 8 56.8
3 9 87.8
3 10 38.1
3 11 32.6
3 12 91.7
3 13 10.6
3 14 49.0
3 15 93.3
3 16 84.1
3 17 85.4
3 18 57.0
3 19 39.3
4 5 70.7
4 6 67.5
4 7 40.6
4 8 81.5
4 9 100.9
4 10 8.8
4 11 47.6
4 12 100.7
4 13 47.9
4 14 9.8
4 15 103.0
4 16 66.3
4 17 83.3
4 18 88.4
4 19 70.0
5 6 24.8
5 7 34.3
5 8 17.7
5 9 52.8
5 10 70.5
5 11 25.9
5 12 59.2
5 13 47.5
5 14 72.5
5 15 60.1
5 16 77.1
5 17 63.4
5 18 17.8
5 19 1.1
6 7 27.1
6 8 19.0
6 9 35.9
6 10 70.4
6 11 21.8
6 12 39.3
6 13 62.2
6 14 65.8
6 15 40.9
6 16 54.3
6 17 38.7
6 18 32.8
6 19 25.5
7 8 41.6
7 9 61.8
7 10 43.4
7 11 8.4
7 12 63.2
7 13 44.5
7 14 39.9
7 15 65.3
7 16 51.4
7 17 52.3
7 18 50.6
7 19 34.1
8 9 35.9
8 10 82.9
8 11 33.9
8 12 43.1
8 13 64.7
8 14 81.4
8 15 43.7
8 16 72.7
8 17 52.6
8 18 14.9
8 19 18.8
9 10 104.9
9 11 57.6
9 12 9.6
9 13 97.2
9 14 97.5
9 15 8.8
9 16 64.3
9 17 33.7
9 18 47.5
9 19 53.9
10 11 49.4
10 12 105.4
10 13 42.0
10 14 18.6
10 15 107.7
10 16 74.3
10 17 89.5
10 18 88.4
10 19 69.8
11 12 60.2
11 13 43.1
11 14 47.7
11 15 62.0
11 16 56.7
11 17 52.9
11 18 42.3
11 19 25.6
12 13 101.4
12 14 96.4
12 15 2.6
12 16 58.0
12 17 26.6
12 18 55.8
12 19 60.1
13 14 55.7
13 15 103.0
13 16 94.4
13 17 95.9
13 18 63.1
13 19 46.5
14 15 98.8
14 16 57.9
14 17 77.1
14 18 89.7
14 19 72.0
15 16 60.6
15 17 29.2
15 18 55.9
15 19 61.1
16 17 31.5
16 18 87.1
16 19 77.4
17 18 67.4
17 19 64.1
18 19 18.6
